NAME: ACTUAL_TOURS/amz2745
TYPE: TOUR
COMMENT: RouteID_861281cc-306b-477b-9e98-1bdf2302acbb
DIMENSION: 131
TOUR_SECTION
21
36
48
88
43
110
114
37
61
46
115
111
84
72
70
53
47
58
8
80
5
104
117
18
60
29
102
27
67
98
22
62
95
45
26
116
17
3
9
124
77
87
2
94
81
55
44
82
56
32
41
78
51
128
90
121
123
19
25
120
40
23
93
65
109
108
63
13
42
1
31
15
12
99
50
113
118
125
6
76
101
16
79
11
4
107
100
91
35
34
68
10
75
66
89
92
71
28
20
122
106
7
69
126
130
97
64
129
24
85
52
33
112
14
96
103
38
74
127
105
131
119
49
30
59
57
86
83
39
54
73
-1
EOF
